15
1 0 4
3 1 1
4 1 2
4 3 1
5 0 4
5 2 2
5 4 3
6 0 3
6 4 3
7 0 2
7 1 3
7 2 3
7 4 4
8 0 4
8 1 1
8 2 5
8 3 4
8 4 2
8 6 2
9 1 4
9 3 1
9 4 4
9 5 4
10 0 2
10 1 5
10 4 5
10 5 4
10 8 1
11 2 3
11 4 3
11 10 5
12 1 5
12 2 2
12 3 5
12 5 3
12 6 2
12 7 2
12 8 1
12 9 2
12 10 1
13 0 4
13 2 1
13 4 2
13 5 1
13 10 3
13 12 5
14 0 3
14 2 2
14 5 4
14 8 3
14 10 5
14 11 5
14 13 2
